db/inputs/76832372535701145719244173121736421487.smt2
(set-logic QF_FP)
(declare-const x0 (_ FloatingPoint 11 53))
(declare-const x1 (_ FloatingPoint 11 53))
(declare-const x2 (_ FloatingPoint 11 53))
(declare-const x3 (_ FloatingPoint 11 53))
(declare-const x4 (_ FloatingPoint 11 53))
(declare-const x5 (_ FloatingPoint 11 53))
(declare-const x6 (_ FloatingPoint 11 53))
(declare-const x7 (_ FloatingPoint 11 53))
(declare-const x8 (_ FloatingPoint 11 53))
(declare-const x9 (_ FloatingPoint 11 53))
(declare-const x10 (_ FloatingPoint 11 53))
(declare-const x11 (_ FloatingPoint 11 53))
(declare-const x12 (_ FloatingPoint 11 53))
(declare-const x13 (_ FloatingPoint 11 53))
(declare-const x14 (_ FloatingPoint 11 53))
(declare-const x15 (_ FloatingPoint 11 53))
(declare-const x16 (_ FloatingPoint 11 53))
(declare-const x17 (_ FloatingPoint 11 53))
(declare-const x18 (_ FloatingPoint 11 53))
(declare-const x19 (_ FloatingPoint 11 53))
(declare-const x20 (_ FloatingPoint 11 53))
(declare-const x21 (_ FloatingPoint 11 53))
(declare-const x22 (_ FloatingPoint 11 53))
(assert (fp.lt (fp.div RNE x3 x0) (fp.neg x4)))
(assert (fp.lt (fp.sub RNE x1 x16) (fp.div RNE x1 x18)))
(assert (fp.lt (fp.mul RNE x13 x0) (fp.add RNE x7 x13)))
(assert (fp.geq (fp.sub RNE x0 x15) (fp.add RNE x16 x7)))
(assert (fp.leq (fp.mul RNE x1 x8) (fp.add RNE x2 x16)))
(assert (fp.geq (fp.sub RNE x18 x12) (fp.mul RNE x11 x15)))
(assert (fp.gt (fp.neg x13) (fp.neg x19)))
(assert (fp.gt (fp.mul RNE x21 x1) (fp.neg x13)))
(assert (fp.eq (fp.add RNE x2 x13) (fp.mul RNE x7 x5)))
(assert (fp.lt (fp.add RNE x19 x4) (fp.add RNE x10 x18)))
(assert (fp.leq (fp.div RNE x15 x3) (fp.mul RNE x15 x19)))
(assert (fp.gt (fp.sub RNE x18 x8) (fp.add RNE x11 x9)))
(assert (fp.gt (fp.neg x7) (fp.add RNE x12 x18)))
(assert (fp.gt (fp.mul RNE x0 x7) (fp.sub RNE x1 x15)))
(check-sat)
