db/data/76832372535701145719244173121736421487.z3.out
-------------------
2500.217367378
